Au                                      
   1.00000000000000     
     2.8978650106587094    0.0000000000000000    0.0000000000000000
     0.0000000000000000    2.8978650106587094    0.0000000000000000
     0.0000000000000000    0.0000000000000000   21.1473000000000013
   Au
     4
Selective dynamics
Direct
  0.4489325053293527  0.4489325053293527  0.5000000000000000   F   F   F
 -0.0483615598341021 -0.0483615632276659  0.5981040422967372   T   T   T
  0.4544228493195274  0.4544228423235007  0.6955372147068567   T   T   T
 -0.0453133988300920 -0.0453134098957023  0.7937639334423964   T   T   T
 
  0.00000000E+00  0.00000000E+00  0.00000000E+00
  0.00000000E+00  0.00000000E+00  0.00000000E+00
  0.00000000E+00  0.00000000E+00  0.00000000E+00
  0.00000000E+00  0.00000000E+00  0.00000000E+00
