Au 
 1.0000000000000000
     2.8978650106587094    0.0000000000000000    0.0000000000000000
     0.0000000000000000    2.8978650106587094    0.0000000000000000
     0.0000000000000000    0.0000000000000000   21.1473000000000013
 Au 
   4
Selective dynamics
Direct
     1.4489325053293547  1.4489325053293547  7.5000000000000000   F   F   F
     0.0000000000000000  0.0000000000000000  9.5490999999999993   T   T   T
     1.4489325053293547  1.4489325053293547 11.5982000000000003   T   T   T
     0.0000000000000000  0.0000000000000000 13.6473000000000013   T   T   T
