Fe 
 1.0000000000000000
     9.9430880515059314    0.0000000000000000    0.0000000000000000
     4.9715440257529657    8.6109668446696510    0.0000000000000000
     0.0000000000000000    0.0000000000000000    9.0066641993581626
 Fe 
  52
Cartesian
  4.7123804499461919  7.2805391398727233  3.3774990747593110
  1.6529687417905186  0.6567184901268407  3.3774990747593110
  2.0335394393433690  2.2087566478841687  1.1258330249197703
  3.5651010593878154  2.6438646850506049  3.3774990747593110
  2.4225056357886761  3.7526819368871278  5.6291651245988517
  2.0335394393433690  2.2087566478841687  7.8808311744383923
  3.9456717569406625  4.1959028428079357  1.1258330249197703
  5.4772333769851089  4.6310108799743723  3.3774990747593110
  4.3346379533859700  5.7398281318108939  5.6291651245988517
  3.9456717569406625  4.1959028428079357  7.8808311744383923
  5.8578040745379543  6.1830490377316991  1.1258330249197703
  7.3893656945824020  6.6181570748981358  3.3774990747593110
  6.2467702709832622  7.7269743267346591  5.6291651245988517
  5.8578040745379543  6.1830490377316991  7.8808311744383923
  7.7699363921352518  8.1701952326554643  1.1258330249197703
  9.3014980121796995  8.6053032698219027  3.3774990747593110
  7.7699363921352518  8.1701952326554643  7.8808311744383923
  3.1873585628275931  1.1031536769887742  5.6291651245988517
  4.7105246839795782  1.5463745829095805  1.1258330249197703
  6.2420863040240251  1.9814826200760167  3.3774990747593110
  5.0994908804248862  3.0902998719125399  5.6291651245988517
  4.7105246839795782  1.5463745829095805  7.8808311744383923
  6.6226570015768758  3.5335207778333464  1.1258330249197703
  8.1542186216213217  3.9686288149997830  3.3774990747593110
  7.0116231980221837  5.0774460668363055  5.6291651245988517
  6.6226570015768758  3.5335207778333464  7.8808311744383923
  8.5347893191741679  5.5206669727571098  1.1258330249197703
 10.0663509392186139  5.9557750099235474  3.3774990747593110
  8.9237555156194759  7.0645922617600707  5.6291651245988517
  8.5347893191741679  5.5206669727571098  7.8808311744383923
 10.4469216367714619  7.5078131676808759  1.1258330249197703
 11.9784832568159079  7.9429212048473143  3.3774990747593110
 10.4469216367714619  7.5078131676808759  7.8808311744383923
  5.8643438074638032  0.4407716120141862  5.6291651245988517
  7.3875099286157893  0.8839925179349926  1.1258330249197703
  8.9190715486602361  1.3191005551014285  3.3774990747593110
  7.7764761250610963  2.4279178069379519  5.6291651245988517
  7.3875099286157893  0.8839925179349926  7.8808311744383923
  9.2996422462130859  2.8711387128587584  1.1258330249197703
 10.8312038662575318  3.3062467500251951  3.3774990747593110
  9.6886084426583938  4.4150640018617171  5.6291651245988517
  9.2996422462130859  2.8711387128587584  7.8808311744383923
 11.2117745638103781  4.8582849077825223  1.1258330249197703
 12.7433361838548258  5.2933929449489590  3.3774990747593110
 11.6007407602556860  6.4022101967854823  5.6291651245988517
 11.2117745638103781  4.8582849077825223  7.8808311744383923
 13.1239068814076720  6.8454311027062884  1.1258330249197703
 13.5128730778529800  8.3893563917092493  5.6291651245988517
 13.1239068814076720  6.8454311027062884  7.8808311744383923
 10.0644951732520056  0.2216104529604026  1.1258330249197703
 10.4534613696973135  1.7655357419633622  5.6291651245988517
 10.0644951732520056  0.2216104529604026  7.8808311744383923
