Mo 
 1.0000000000000000
     4.4689148570989810    0.0000000000000000    0.0000000000000000
     2.2344574285494900    3.8701937935974224    0.0000000000000000
     0.0000000000000000    0.0000000000000000   35.5076282304333404
 Mo 
  18
Cartesian
  0.0000000000000000  0.0000000000000000 10.0000000000000000
  2.2344574285494900  1.2900645978658072 10.9122134253196084
  4.4689148570989827  2.5801291957316153 11.8244268506392167
  2.2344574285494909  3.8701937935974220 12.7366402759588251
  2.2344574285494931  1.2900645978658076 13.6488537012784334
  4.4689148570989827  2.5801291957316144 14.5610671265980418
  0.0000000000000045  0.0000000000000009 15.4732805519176502
  2.2344574285494954  1.2900645978658076 16.3854939772372603
  4.4689148570989863  2.5801291957316153 17.2977074025568669
  0.0000000000000060  0.0000000000000000 18.2099208278764735
  2.2344574285494971  1.2900645978658081 19.1221342531960801
  4.4689148570989863  2.5801291957316153 20.0343476785156902
  0.0000000000000089  0.0000000000000017 20.9465611038353003
  2.2344574285494971  1.2900645978658081 21.8587745291549069
  4.4689148570989907  2.5801291957316161 22.7709879544745135
  0.0000000000000060  0.0000000000000034 23.6832013797941201
  2.2344574285495011  1.2900645978658081 24.5954148051137302
  4.4689148570989916  2.5801291957316179 25.5076282304333404
