Fe 
 1.0000000000000000
    16.5462986797652150    0.0000000000000000    0.0000000000000000
     8.2731493398826075   14.3295149952815919    0.0000000000000000
     0.0000000000000000    0.0000000000000000   22.2516660498395424
 Fe 
  72
Cartesian
  2.0682873349706554  1.9902104160113367 10.0000000000000000
  2.0682873349706554  0.3980420832022702 12.2516660498395424
  3.4471455582844186  4.3784629152249366 10.0000000000000000
  3.4471455582844186  2.7862945824158700 12.2516660498395424
  4.8260037815981889  6.7667154144385364 10.0000000000000000
  4.8260037815981889  5.1745470816294699 12.2516660498395424
  6.2048620049119592  9.1549679136521362 10.0000000000000000
  6.2048620049119592  7.5627995808430697 12.2516660498395424
  7.5837202282257294 11.5432204128657290 10.0000000000000000
  7.5837202282257294  9.9510520800566624 12.2516660498395424
  8.9625784515394997 13.9314729120793288 10.0000000000000000
  8.9625784515394997 12.3393045792702623 12.2516660498395424
  4.8260037815981889  1.9902104160113367 10.0000000000000000
  4.8260037815981889  0.3980420832022702 12.2516660498395424
  6.2048620049119592  4.3784629152249366 10.0000000000000000
  6.2048620049119592  2.7862945824158700 12.2516660498395424
  7.5837202282257152  6.7667154144385364 10.0000000000000000
  7.5837202282257152  5.1745470816294699 12.2516660498395424
  8.9625784515394997  9.1549679136521362 10.0000000000000000
  8.9625784515394997  7.5627995808430697 12.2516660498395424
 10.3414366748532558 11.5432204128657290 10.0000000000000000
 10.3414366748532558  9.9510520800566624 12.2516660498395424
 11.7202948981670261 13.9314729120793288 10.0000000000000000
 11.7202948981670261 12.3393045792702623 12.2516660498395424
  7.5837202282257152  1.9902104160113367 10.0000000000000000
  7.5837202282257152  0.3980420832022702 12.2516660498395424
  8.9625784515394855  4.3784629152249366 10.0000000000000000
  8.9625784515394855  2.7862945824158700 12.2516660498395424
 10.3414366748532558  6.7667154144385364 10.0000000000000000
 10.3414366748532558  5.1745470816294699 12.2516660498395424
 11.7202948981670261  9.1549679136521362 10.0000000000000000
 11.7202948981670261  7.5627995808430697 12.2516660498395424
 13.0991531214807964 11.5432204128657290 10.0000000000000000
 13.0991531214807964  9.9510520800566624 12.2516660498395424
 14.4780113447945524 13.9314729120793288 10.0000000000000000
 14.4780113447945524 12.3393045792702623 12.2516660498395424
 10.3414366748532558  1.9902104160113367 10.0000000000000000
 10.3414366748532558  0.3980420832022702 12.2516660498395424
 11.7202948981670261  4.3784629152249366 10.0000000000000000
 11.7202948981670261  2.7862945824158700 12.2516660498395424
 13.0991531214807964  6.7667154144385364 10.0000000000000000
 13.0991531214807964  5.1745470816294699 12.2516660498395424
 14.4780113447945666  9.1549679136521362 10.0000000000000000
 14.4780113447945666  7.5627995808430697 12.2516660498395424
 15.8568695681083369 11.5432204128657290 10.0000000000000000
 15.8568695681083369  9.9510520800566624 12.2516660498395424
 17.2357277914220930 13.9314729120793288 10.0000000000000000
 17.2357277914220930 12.3393045792702623 12.2516660498395424
 13.0991531214807964  1.9902104160113367 10.0000000000000000
 13.0991531214807964  0.3980420832022702 12.2516660498395424
 14.4780113447945666  4.3784629152249366 10.0000000000000000
 14.4780113447945666  2.7862945824158700 12.2516660498395424
 15.8568695681083369  6.7667154144385364 10.0000000000000000
 15.8568695681083369  5.1745470816294699 12.2516660498395424
 17.2357277914220930  9.1549679136521362 10.0000000000000000
 17.2357277914220930  7.5627995808430697 12.2516660498395424
 18.6145860147358633 11.5432204128657290 10.0000000000000000
 18.6145860147358633  9.9510520800566624 12.2516660498395424
 19.9934442380496336 13.9314729120793288 10.0000000000000000
 19.9934442380496336 12.3393045792702623 12.2516660498395424
 15.8568695681083369  1.9902104160113367 10.0000000000000000
 15.8568695681083369  0.3980420832022702 12.2516660498395424
 17.2357277914220930  4.3784629152249366 10.0000000000000000
 17.2357277914220930  2.7862945824158700 12.2516660498395424
 18.6145860147358633  6.7667154144385364 10.0000000000000000
 18.6145860147358633  5.1745470816294699 12.2516660498395424
 19.9934442380496336  9.1549679136521362 10.0000000000000000
 19.9934442380496336  7.5627995808430697 12.2516660498395424
 21.3723024613634038 11.5432204128657290 10.0000000000000000
 21.3723024613634038  9.9510520800566624 12.2516660498395424
 22.7511606846771741 13.9314729120793288 10.0000000000000000
 22.7511606846771741 12.3393045792702623 12.2516660498395424
