Mo 
 1.0000000000000000
     3.1600000000000001    0.0000000000000000    0.0000000000000000
     0.0000000000000000    3.1600000000000001    0.0000000000000000
     0.0000000000000000    0.0000000000000000    3.1600000000000001
 Mo 
   4
Cartesian
  0.0000000000000000  0.0000000000000000  0.0000000000000000
  0.0000000000000000  1.5800000000000001  1.5800000000000001
  1.5800000000000001  0.0000000000000000  1.5800000000000001
  1.5800000000000001  1.5800000000000001  0.0000000000000000
