Fe 
 1.0000000000000000
     2.7577164466275357    0.0000000000000000    0.0000000000000000
     1.3788582233137678    2.3882524992135985    0.0000000000000000
     0.0000000000000000    0.0000000000000000   16.7549981495186202
 Fe 
   4
Cartesian
  1.6086679271993958  0.3980420832022664  5.0000000000000000
  2.9875261505131636  1.1941262496067993  7.2516660498395407
  1.6086679271993958  1.9902104160113321  9.5033320996790813
  1.6086679271993958  0.3980420832022664 11.7549981495186202
