Mo 
 1.0000000000000000
     2.2344574285494900    0.0000000000000000    0.0000000000000000
     0.0000000000000000    2.2344574285494900    0.0000000000000000
     0.0000000000000000    0.0000000000000000    3.1600000000000001
 Mo 
   2
Cartesian
  0.0000000000000000  0.0000000000000000  0.0000000000000000
  1.1172287142747450  1.1172287142747450  1.5800000000000001
