Al 
 1.0000000000000000
     9.0560753088741457   -9.0560753088741457    0.0000000000000000
     0.0000000000000004    9.0560753088741457  -20.2500000000000000
     2.5614449047363861    5.1228898094727731    4.0499999999999989
 Al 
  59
Cartesian
  1.3261810391120792 -0.1034827356753866  2.2965989090220131
  0.6750419164315549  1.8139746544417532  0.2715989090220137
  0.0454585867438855  3.7386846214291944 -1.7534010909779867
  1.3118778229895236 -0.1322911055385423 -1.7534010909779862
  3.8804743357871891 -1.3986093729751581 -1.7534010909779862
  4.5316134584677137 -3.3160667630922989  0.2715989090220137
  3.8804743357871891 -1.3986093729751581  2.2965989090220131
  6.4490708485848529 -2.6649276404117721  2.2965989090220131
  5.7979317259043288 -0.7474702502946338  0.2715989090220137
  3.2293352131066646  0.5188480171419824  0.2715989090220137
  1.3334336159823799 -0.1250385286682422 -5.8034010909779852
  0.6822944933018554  1.7924188614488976 -3.7784010909779862
  0.0311553706213299  3.7098762515660382 -5.8034010909779852
  2.5997518834189952  2.4435579841294226 -5.8034010909779852
  3.2508910060995198  0.5261005940122825 -3.7784010909779862
  2.5997518834189952  2.4435579841294226 -1.7534010909779867
  5.1683483962166603  1.1772397166928070 -1.7534010909779867
  4.5172092735361353  3.0946971068099467 -3.7784010909779862
  1.9486127607384709  4.3610153742465627 -3.7784010909779862
  0.7038502862947108  1.7996714383191978 -7.8284010909779855
  0.0527111636141864  3.7171288284363380 -9.8534010909779859
  1.3190294310508015  6.2857253412340039 -9.8534010909779859
  1.9701685537313263  4.3682679511168629 -7.8284010909779855
  1.3190294310508015  6.2857253412340039 -5.8034010909779870
  3.8876259438484664  5.0194070737973879 -5.8034010909779870
  0.6678903083702772  8.2031827313511432 -7.8284010909779855
  0.6894461013631332  8.2104353082214416 -11.8784010909779845
  7.7370458778233466 -6.5286507905092090 -1.7534010909779862
  7.0859067551428225 -4.6111934003920698  0.2715989090220137
  6.4347676324622975 -2.6937360102749301 -1.7534010909779862
  9.0033641452599635 -3.9600542777115448 -1.7534010909779862
  9.0033641452599635 -3.9600542777115448  2.2965989090220131
  8.3522250225794394 -2.0425968875944047  0.2715989090220137
  7.1074625481356772 -4.6039408235217705 -3.7784010909779862
  3.8877269126574889 -1.4201651659680139 -5.8034010909779852
  6.4563234254551540 -2.6864834334046304 -5.8034010909779852
  4.5388660353380130 -3.3376225560851545 -3.7784010909779862
  5.8051843027746290 -0.7690260432874896 -3.7784010909779862
  5.1540451800941041  1.1484313468296512 -5.8034010909779852
  7.7226416928917700 -0.1178869206069644 -5.8034010909779852
  8.3737808155722959 -2.0353443107241049 -3.7784010909779862
  7.7226416928917700 -0.1178869206069644 -1.7534010909779867
  7.0715025702112451  1.7995704695101762 -3.7784010909779862
  5.8267400957674838 -0.7617734664171893 -7.8284010909779855
  2.6070044602892954  2.4220021911365666 -9.8534010909779859
  5.1756009730869597  1.1556839236999510 -9.8534010909779859
  3.2581435829698195  0.5045448010194266 -7.8284010909779855
  4.5244618504064356  3.0731413138170911 -7.8284010909779855
  3.8733227277259101  4.9905987039342321 -9.8534010909779859
  7.0930583632041015  1.8068230463804764 -7.8284010909779855
  4.5460176433992903  3.0803938906873904 -11.8784010909779845
  1.3262820079211017  6.2641695482411466 -13.9034010909779848
  3.8948785207187666  4.9978512808045306 -13.9034010909779848
  1.9774211306016263  4.3467121581240065 -11.8784010909779845
  0.6966986782334321  8.1888795152285887 -15.9284010909779852
  9.0106167221302620 -3.9816100707043987 -5.8034010909779852
  7.7298942697620685 -0.1394427135998195 -9.8534010909779859
  8.3810333924425926 -2.0569001037169592 -7.8284010909779855
  7.1003109400744000  1.7852672533876199 -11.8784010909779845
