Au                                      
   1.00000000000000     
     4.0982000000000003    0.0000000000000000    0.0000000000000000
     0.0000000000000000    2.8978650106587094    0.0000000000000000
     0.0000000000000000    0.0000000000000000   19.3467975159880652
   Au
     4
Selective dynamics
Direct
  0.0491000000000028  0.4489325053293527  0.5000000000000000   F   F   F
  0.0000204405724613 -0.0000075320187690  0.9651409524940141   T   T   T
  0.0488749625955601  0.4489212164650346  0.3652198504859774   T   T   T
  0.0000331298720135 -0.0000158102778262  0.8302936725993226   T   T   T
 
  0.00000000E+00  0.00000000E+00  0.00000000E+00
  0.00000000E+00  0.00000000E+00  0.00000000E+00
  0.00000000E+00  0.00000000E+00  0.00000000E+00
  0.00000000E+00  0.00000000E+00  0.00000000E+00
