Au 
 1.0000000000000000
     4.0982000000000003    0.0000000000000000    0.0000000000000000
     0.0000000000000000    2.8978650106587094    0.0000000000000000
     0.0000000000000000    0.0000000000000000   19.3467975159880652
 Au 
   4
Selective dynamics
Direct
     2.0491000000000001  1.4489325053293547  7.4999999999999991   F   F   F
     0.0000000000000000  0.0000000000000000  8.9489325053293545   T   T   T
     2.0491000000000001  1.4489325053293547 10.3978650106587089   T   T   T
     0.0000000000000000  0.0000000000000000 11.8467975159880634   T   T   T
