Au 
 1.0000000000000000
    16.3928000000000011    0.0000000000000000    0.0000000000000000
     0.0000000000000000   11.5914600426348375    0.0000000000000000
     0.0000000000000000    0.0000000000000000   19.3467975159880652
 Au 
  64
Selective dynamics
Cartesian
  0.2012216200000115  1.3009457993412858  9.6733987579940326   F   F   F
  0.0000837695540609 -0.0000218267736503 18.6723865822895476   T   T   T
  0.2002993717091244  1.3009130857363682  7.0658344961716395   T   T   T
  0.0001357728414857 -0.0000458160509213 16.0635235625851820   T   T   T
  0.2012216200000115  4.1988108099999950  9.6733987579940326   F   F   F
  0.0000837695540609  2.8978431838850591 18.6723865822895476   T   T   T
  0.2002993717091244  4.1987780963950776  7.0658344961716395   T   T   T
  0.0001357728414857  2.8978191946077883 16.0635235625851820   T   T   T
  0.2012216200000115  7.0966758206587048  9.6733987579940326   F   F   F
  0.0000837695540609  5.7957081945437681 18.6723865822895476   T   T   T
  0.2002993717091244  7.0966431070537865  7.0658344961716395   T   T   T
  0.0001357728414857  5.7956842052664976 16.0635235625851820   T   T   T
  0.2012216200000115  9.9945408313174138  9.6733987579940326   F   F   F
  0.0000837695540609  8.6935732052024779 18.6723865822895476   T   T   T
  0.2002993717091244  9.9945081177124973  7.0658344961716395   T   T   T
  0.0001357728414857  8.6935492159252075 16.0635235625851820   T   T   T
  4.2994216200000119  1.3009457993412858  9.6733987579940326   F   F   F
  4.0982837695540608 -0.0000218267736503 18.6723865822895476   T   T   T
  4.2984993717091244  1.3009130857363682  7.0658344961716395   T   T   T
  4.0983357728414864 -0.0000458160509213 16.0635235625851820   T   T   T
  4.2994216200000119  4.1988108099999950  9.6733987579940326   F   F   F
  4.0982837695540608  2.8978431838850591 18.6723865822895476   T   T   T
  4.2984993717091244  4.1987780963950776  7.0658344961716395   T   T   T
  4.0983357728414864  2.8978191946077883 16.0635235625851820   T   T   T
  4.2994216200000119  7.0966758206587048  9.6733987579940326   F   F   F
  4.0982837695540608  5.7957081945437681 18.6723865822895476   T   T   T
  4.2984993717091244  7.0966431070537865  7.0658344961716395   T   T   T
  4.0983357728414864  5.7956842052664976 16.0635235625851820   T   T   T
  4.2994216200000119  9.9945408313174138  9.6733987579940326   F   F   F
  4.0982837695540608  8.6935732052024779 18.6723865822895476   T   T   T
  4.2984993717091244  9.9945081177124973  7.0658344961716395   T   T   T
  4.0983357728414864  8.6935492159252075 16.0635235625851820   T   T   T
  8.3976216200000113  1.3009457993412858  9.6733987579940326   F   F   F
  8.1964837695540620 -0.0000218267736503 18.6723865822895476   T   T   T
  8.3966993717091256  1.3009130857363682  7.0658344961716395   T   T   T
  8.1965357728414858 -0.0000458160509213 16.0635235625851820   T   T   T
  8.3976216200000113  4.1988108099999950  9.6733987579940326   F   F   F
  8.1964837695540620  2.8978431838850591 18.6723865822895476   T   T   T
  8.3966993717091256  4.1987780963950776  7.0658344961716395   T   T   T
  8.1965357728414858  2.8978191946077883 16.0635235625851820   T   T   T
  8.3976216200000113  7.0966758206587048  9.6733987579940326   F   F   F
  8.1964837695540620  5.7957081945437681 18.6723865822895476   T   T   T
  8.3966993717091256  7.0966431070537865  7.0658344961716395   T   T   T
  8.1965357728414858  5.7956842052664976 16.0635235625851820   T   T   T
  8.3976216200000113  9.9945408313174138  9.6733987579940326   F   F   F
  8.1964837695540620  8.6935732052024779 18.6723865822895476   T   T   T
  8.3966993717091256  9.9945081177124973  7.0658344961716395   T   T   T
  8.1965357728414858  8.6935492159252075 16.0635235625851820   T   T   T
 12.4958216200000116  1.3009457993412858  9.6733987579940326   F   F   F
 12.2946837695540623 -0.0000218267736503 18.6723865822895476   T   T   T
 12.4948993717091259  1.3009130857363682  7.0658344961716395   T   T   T
 12.2947357728414861 -0.0000458160509213 16.0635235625851820   T   T   T
 12.4958216200000116  4.1988108099999950  9.6733987579940326   F   F   F
 12.2946837695540623  2.8978431838850591 18.6723865822895476   T   T   T
 12.4948993717091259  4.1987780963950776  7.0658344961716395   T   T   T
 12.2947357728414861  2.8978191946077883 16.0635235625851820   T   T   T
 12.4958216200000116  7.0966758206587048  9.6733987579940326   F   F   F
 12.2946837695540623  5.7957081945437681 18.6723865822895476   T   T   T
 12.4948993717091259  7.0966431070537865  7.0658344961716395   T   T   T
 12.2947357728414861  5.7956842052664976 16.0635235625851820   T   T   T
 12.4958216200000116  9.9945408313174138  9.6733987579940326   F   F   F
 12.2946837695540623  8.6935732052024779 18.6723865822895476   T   T   T
 12.4948993717091259  9.9945081177124973  7.0658344961716395   T   T   T
 12.2947357728414861  8.6935492159252075 16.0635235625851820   T   T   T
