Au                                      
   1.00000000000000     
     2.8978650106587094    0.0000000000000000    0.0000000000000000
     1.4489325053293547    2.5096247159685050    0.0000000000000000
     0.0000000000000000    0.0000000000000000   22.0982906195787798
   Au
     4
Selective dynamics
Direct
  0.0000000000000000  0.0000000000000000  0.5000000000000000   F   F   F
  0.6924473128602403  0.6759102223182606  0.7323686970916140   T   T   T
  0.0197206659668046  0.4907253793555926  0.3858663061763052   T   T   T
 -0.2566438100492561  0.1575536275549480  0.6184335668265195   T   T   T
 
  0.00000000E+00  0.00000000E+00  0.00000000E+00
  0.00000000E+00  0.00000000E+00  0.00000000E+00
  0.00000000E+00  0.00000000E+00  0.00000000E+00
  0.00000000E+00  0.00000000E+00  0.00000000E+00
