Au 
 1.0000000000000000
     2.8978650106587094    0.0000000000000000    0.0000000000000000
     1.4489325053293547    2.5096247159685050    0.0000000000000000
     0.0000000000000000    0.0000000000000000   22.0982906195787798
 Au 
   4
Selective dynamics
Direct
     0.0000000000000000  0.0000000000000000  7.5000000000000000   F   F   F
     1.4489325053293547  0.8365415719895016  9.8660968731929248   T   T   T
     0.0000000000000000  1.6730831439790033 12.2321937463858497   T   T   T
     0.0000000000000000  0.0000000000000000 14.5982906195787745   T   T   T
