Au  C  H  O  H 
 1.0000000000000000
    11.5914600426348375    0.0000000000000000    0.0000000000000000
     5.7957300213174188   10.0384988638740200    0.0000000000000000
     0.0000000000000000    0.0000000000000000   22.0982906195787798
 Au  C   H   O   H  
  64   1   3   1   1
Selective dynamics
Cartesian
  1.0522747509341450  0.4066718581314150  9.7427495779787279   F   F   F
  4.0382418823977986  2.1029528578370886 14.8777005772020843   T   T   T
  1.8204505321646329  1.6382083989152310  7.2205900423766947   T   T   T
  0.5368402058871845  0.8020723359338091 12.3599289568244579   T   T   T
  2.5012072562634997  2.9162965740999200  9.7427495779787279   F   F   F
  5.4871743877271530  4.6125775738055941 14.8777005772020843   T   T   T
  3.2693830374939878  4.1478331148837357  7.2205900423766947   T   T   T
  1.9857727112165393  3.3116970519023141 12.3599289568244579   T   T   T
  3.9501397615928546  5.4259212900684251  9.7427495779787279   F   F   F
  6.9361068930565075  7.1222022897740986 14.8777005772020843   T   T   T
  4.7183155428233423  6.6574578308522412  7.2205900423766947   T   T   T
  3.4347052165458942  5.8213217678708187 12.3599289568244579   T   T   T
  5.3990722669222091  7.9355460060369305  9.7427495779787279   F   F   F
  8.3850393983858638  9.6318270057426041 14.8777005772020843   T   T   T
  6.1672480481526968  9.1670825468207475  7.2205900423766947   T   T   T
  4.8836377218752487  8.3309464838393232 12.3599289568244579   T   T   T
  3.9501397615928546  0.4066718581314150  9.7427495779787279   F   F   F
  6.9361068930565075  2.1029528578370886 14.8777005772020843   T   T   T
  4.7183155428233423  1.6382083989152310  7.2205900423766947   T   T   T
  3.4347052165458942  0.8020723359338091 12.3599289568244579   T   T   T
  5.3990722669222091  2.9162965740999200  9.7427495779787279   F   F   F
  8.3850393983858638  4.6125775738055941 14.8777005772020843   T   T   T
  6.1672480481526968  4.1478331148837357  7.2205900423766947   T   T   T
  4.8836377218752487  3.3116970519023141 12.3599289568244579   T   T   T
  6.8480047722515636  5.4259212900684251  9.7427495779787279   F   F   F
  9.8339719037152182  7.1222022897740986 14.8777005772020843   T   T   T
  7.6161805534820513  6.6574578308522412  7.2205900423766947   T   T   T
  6.3325702272046032  5.8213217678708187 12.3599289568244579   T   T   T
  8.2969372775809198  7.9355460060369305  9.7427495779787279   F   F   F
 11.2829044090445727  9.6318270057426041 14.8777005772020843   T   T   T
  9.0651130588114075  9.1670825468207475  7.2205900423766947   T   T   T
  7.7815027325339585  8.3309464838393232 12.3599289568244579   T   T   T
  6.8480047722515636  0.4066718581314150  9.7427495779787279   F   F   F
  9.8339719037152182  2.1029528578370886 14.8777005772020843   T   T   T
  7.6161805534820513  1.6382083989152310  7.2205900423766947   T   T   T
  6.3325702272046032  0.8020723359338091 12.3599289568244579   T   T   T
  8.2969372775809180  2.9162965740999200  9.7427495779787279   F   F   F
 11.2829044090445727  4.6125775738055941 14.8777005772020843   T   T   T
  9.0651130588114075  4.1478331148837357  7.2205900423766947   T   T   T
  7.7815027325339576  3.3116970519023141 12.3599289568244579   T   T   T
  9.7458697829102743  5.4259212900684251  9.7427495779787279   F   F   F
 12.7318369143739272  7.1222022897740986 14.8777005772020843   T   T   T
 10.5140455641407620  6.6574578308522412  7.2205900423766947   T   T   T
  9.2304352378633130  5.8213217678708187 12.3599289568244579   T   T   T
 11.1948022882396288  7.9355460060369305  9.7427495779787279   F   F   F
 14.1807694197032816  9.6318270057426041 14.8777005772020843   T   T   T
 11.9629780694701164  9.1670825468207475  7.2205900423766947   T   T   T
 10.6793677431926675  8.3309464838393232 12.3599289568244579   T   T   T
  9.7458697829102743  0.4066718581314150  9.7427495779787279   F   F   F
 12.7318369143739272  2.1029528578370886 14.8777005772020843   T   T   T
 10.5140455641407620  1.6382083989152310  7.2205900423766947   T   T   T
  9.2304352378633130  0.8020723359338091 12.3599289568244579   T   T   T
 11.1948022882396288  2.9162965740999200  9.7427495779787279   F   F   F
 14.1807694197032816  4.6125775738055941 14.8777005772020843   T   T   T
 11.9629780694701164  4.1478331148837357  7.2205900423766947   T   T   T
 10.6793677431926675  3.3116970519023141 12.3599289568244579   T   T   T
 12.6437347935689832  5.4259212900684251  9.7427495779787279   F   F   F
 15.6297019250326361  7.1222022897740986 14.8777005772020843   T   T   T
 13.4119105747994709  6.6574578308522412  7.2205900423766947   T   T   T
 12.1283002485220219  5.8213217678708187 12.3599289568244579   T   T   T
 14.0926672988983377  7.9355460060369305  9.7427495779787279   F   F   F
 17.0786344303619906  9.6318270057426041 14.8777005772020843   T   T   T
 14.8608430801288254  9.1670825468207475  7.2205900423766947   T   T   T
 13.5772327538513764  8.3309464838393232 12.3599289568244579   T   T   T
  5.4871743899999998  2.9394944299999999 16.1777005799999998   T   T   T
  6.0713963904040158  2.1829727839567887 15.6547685800000007   T   T   T
  5.2784678988594731  2.5786779379515381 17.1921357863836555   T   T   T
  4.5364687437772266  3.0733440413397028 15.6475413736163436   T   T   T
  6.2764794872167275  4.1234520758250914 16.1777005799999998   T   T   T
  5.7702783332898582  4.8093443629816504 16.6405330800000009   T   T   T
