Au 
 1.0000000000000000
    11.5914600426348375    0.0000000000000000    0.0000000000000000
     0.0000000000000000   11.5914600426348375    0.0000000000000000
     0.0000000000000000    0.0000000000000000   21.1473000000000013
 Au 
  64
Selective dynamics
Cartesian
  1.3009457993412858  1.3009457993412858 10.5736500000000007   F   F   F
 -0.1401452721041221 -0.1401452819382119 12.6482856136617912   T   T   T
  1.3168560750868934  1.3168560548133523 14.7087341405703125   T   T   T
 -0.1313121129837469 -0.1313121450503918 16.7859640296863901   T   T   T
  1.3009457993412858  4.1988108099999950 10.5736500000000007   F   F   F
 -0.1401452721041221  2.7577197287204975 12.6482856136617912   T   T   T
  1.3168560750868934  4.2147210654720615 14.7087341405703125   T   T   T
 -0.1313121129837469  2.7665528656083174 16.7859640296863901   T   T   T
  1.3009457993412858  7.0966758206587048 10.5736500000000007   F   F   F
 -0.1401452721041221  5.6555847393792069 12.6482856136617912   T   T   T
  1.3168560750868934  7.1125860761307713 14.7087341405703125   T   T   T
 -0.1313121129837469  5.6644178762670272 16.7859640296863901   T   T   T
  1.3009457993412858  9.9945408313174138 10.5736500000000007   F   F   F
 -0.1401452721041221  8.5534497500379167 12.6482856136617912   T   T   T
  1.3168560750868934 10.0104510867894803 14.7087341405703125   T   T   T
 -0.1313121129837469  8.5622828869257361 16.7859640296863901   T   T   T
  4.1988108099999950  1.3009457993412858 10.5736500000000007   F   F   F
  2.7577197385545871 -0.1401452819382119 12.6482856136617912   T   T   T
  4.2147210857456026  1.3168560548133523 14.7087341405703125   T   T   T
  2.7665528976749627 -0.1313121450503918 16.7859640296863901   T   T   T
  4.1988108099999950  4.1988108099999950 10.5736500000000007   F   F   F
  2.7577197385545871  2.7577197287204975 12.6482856136617912   T   T   T
  4.2147210857456026  4.2147210654720615 14.7087341405703125   T   T   T
  2.7665528976749627  2.7665528656083174 16.7859640296863901   T   T   T
  4.1988108099999950  7.0966758206587048 10.5736500000000007   F   F   F
  2.7577197385545871  5.6555847393792069 12.6482856136617912   T   T   T
  4.2147210857456026  7.1125860761307713 14.7087341405703125   T   T   T
  2.7665528976749627  5.6644178762670272 16.7859640296863901   T   T   T
  4.1988108099999950  9.9945408313174138 10.5736500000000007   F   F   F
  2.7577197385545871  8.5534497500379167 12.6482856136617912   T   T   T
  4.2147210857456026 10.0104510867894803 14.7087341405703125   T   T   T
  2.7665528976749627  8.5622828869257361 16.7859640296863901   T   T   T
  7.0966758206587048  1.3009457993412858 10.5736500000000007   F   F   F
  5.6555847492132969 -0.1401452819382119 12.6482856136617912   T   T   T
  7.1125860964043124  1.3168560548133523 14.7087341405703125   T   T   T
  5.6644179083336716 -0.1313121450503918 16.7859640296863901   T   T   T
  7.0966758206587048  4.1988108099999950 10.5736500000000007   F   F   F
  5.6555847492132969  2.7577197287204975 12.6482856136617912   T   T   T
  7.1125860964043124  4.2147210654720615 14.7087341405703125   T   T   T
  5.6644179083336716  2.7665528656083174 16.7859640296863901   T   T   T
  7.0966758206587048  7.0966758206587048 10.5736500000000007   F   F   F
  5.6555847492132969  5.6555847393792069 12.6482856136617912   T   T   T
  7.1125860964043124  7.1125860761307713 14.7087341405703125   T   T   T
  5.6644179083336716  5.6644178762670272 16.7859640296863901   T   T   T
  7.0966758206587048  9.9945408313174138 10.5736500000000007   F   F   F
  5.6555847492132969  8.5534497500379167 12.6482856136617912   T   T   T
  7.1125860964043124 10.0104510867894803 14.7087341405703125   T   T   T
  5.6644179083336716  8.5622828869257361 16.7859640296863901   T   T   T
  9.9945408313174138  1.3009457993412858 10.5736500000000007   F   F   F
  8.5534497598720058 -0.1401452819382119 12.6482856136617912   T   T   T
 10.0104511070630213  1.3168560548133523 14.7087341405703125   T   T   T
  8.5622829189923824 -0.1313121450503918 16.7859640296863901   T   T   T
  9.9945408313174138  4.1988108099999950 10.5736500000000007   F   F   F
  8.5534497598720058  2.7577197287204975 12.6482856136617912   T   T   T
 10.0104511070630213  4.2147210654720615 14.7087341405703125   T   T   T
  8.5622829189923824  2.7665528656083174 16.7859640296863901   T   T   T
  9.9945408313174138  7.0966758206587048 10.5736500000000007   F   F   F
  8.5534497598720058  5.6555847393792069 12.6482856136617912   T   T   T
 10.0104511070630213  7.1125860761307713 14.7087341405703125   T   T   T
  8.5622829189923824  5.6644178762670272 16.7859640296863901   T   T   T
  9.9945408313174138  9.9945408313174138 10.5736500000000007   F   F   F
  8.5534497598720058  8.5534497500379167 12.6482856136617912   T   T   T
 10.0104511070630213 10.0104510867894803 14.7087341405703125   T   T   T
  8.5622829189923824  8.5622828869257361 16.7859640296863901   T   T   T
