Au 
 1.0000000000000000
    11.5914600426348375    0.0000000000000000    0.0000000000000000
     5.7957300213174188   10.0384988638740200    0.0000000000000000
     0.0000000000000000    0.0000000000000000   22.0982906195787798
 Au 
  64
Selective dynamics
Cartesian
  0.0000000000000000  0.0000000000000000 11.0491453097893899   F   F   F
  2.9859671314636533  1.6962809997056738 16.1840963090127481   T   T   T
  0.7681757812304878  1.2315365407838159  8.5269857741873576   T   T   T
 -0.5154345450469605  0.3954004778023940 13.6663246886351217   T   T   T
  1.4489325053293547  2.5096247159685050 11.0491453097893899   F   F   F
  4.4348996367930082  4.2059057156741790 16.1840963090127481   T   T   T
  2.2171082865598426  3.7411612567523207  8.5269857741873576   T   T   T
  0.9334979602823942  2.9050251937708991 13.6663246886351217   T   T   T
  2.8978650106587094  5.0192494319370100 11.0491453097893899   F   F   F
  5.8838321421223627  6.7155304316426836 16.1840963090127481   T   T   T
  3.6660407918891971  6.2507859727208261  8.5269857741873576   T   T   T
  2.3824304656117490  5.4146499097394036 13.6663246886351217   T   T   T
  4.3467975159880643  7.5288741479055155 11.0491453097893899   F   F   F
  7.3327646474517181  9.2251551476111899 16.1840963090127481   T   T   T
  5.1149732972185520  8.7604106886893316  8.5269857741873576   T   T   T
  3.8313629709411039  7.9242746257079091 13.6663246886351217   T   T   T
  2.8978650106587094  0.0000000000000000 11.0491453097893899   F   F   F
  5.8838321421223627  1.6962809997056738 16.1840963090127481   T   T   T
  3.6660407918891971  1.2315365407838159  8.5269857741873576   T   T   T
  2.3824304656117490  0.3954004778023940 13.6663246886351217   T   T   T
  4.3467975159880643  2.5096247159685050 11.0491453097893899   F   F   F
  7.3327646474517181  4.2059057156741790 16.1840963090127481   T   T   T
  5.1149732972185520  3.7411612567523207  8.5269857741873576   T   T   T
  3.8313629709411039  2.9050251937708991 13.6663246886351217   T   T   T
  5.7957300213174188  5.0192494319370100 11.0491453097893899   F   F   F
  8.7816971527810725  6.7155304316426836 16.1840963090127481   T   T   T
  6.5639058025479065  6.2507859727208261  8.5269857741873576   T   T   T
  5.2802954762704584  5.4146499097394036 13.6663246886351217   T   T   T
  7.2446625266467741  7.5288741479055155 11.0491453097893899   F   F   F
 10.2306296581104270  9.2251551476111899 16.1840963090127481   T   T   T
  8.0128383078772618  8.7604106886893316  8.5269857741873576   T   T   T
  6.7292279815998137  7.9242746257079091 13.6663246886351217   T   T   T
  5.7957300213174188  0.0000000000000000 11.0491453097893899   F   F   F
  8.7816971527810725  1.6962809997056738 16.1840963090127481   T   T   T
  6.5639058025479065  1.2315365407838159  8.5269857741873576   T   T   T
  5.2802954762704584  0.3954004778023940 13.6663246886351217   T   T   T
  7.2446625266467732  2.5096247159685050 11.0491453097893899   F   F   F
 10.2306296581104270  4.2059057156741790 16.1840963090127481   T   T   T
  8.0128383078772618  3.7411612567523207  8.5269857741873576   T   T   T
  6.7292279815998128  2.9050251937708991 13.6663246886351217   T   T   T
  8.6935950319761286  5.0192494319370100 11.0491453097893899   F   F   F
 11.6795621634397815  6.7155304316426836 16.1840963090127481   T   T   T
  9.4617708132066163  6.2507859727208261  8.5269857741873576   T   T   T
  8.1781604869291673  5.4146499097394036 13.6663246886351217   T   T   T
 10.1425275373054831  7.5288741479055155 11.0491453097893899   F   F   F
 13.1284946687691360  9.2251551476111899 16.1840963090127481   T   T   T
 10.9107033185359708  8.7604106886893316  8.5269857741873576   T   T   T
  9.6270929922585218  7.9242746257079091 13.6663246886351217   T   T   T
  8.6935950319761286  0.0000000000000000 11.0491453097893899   F   F   F
 11.6795621634397815  1.6962809997056738 16.1840963090127481   T   T   T
  9.4617708132066163  1.2315365407838159  8.5269857741873576   T   T   T
  8.1781604869291673  0.3954004778023940 13.6663246886351217   T   T   T
 10.1425275373054831  2.5096247159685050 11.0491453097893899   F   F   F
 13.1284946687691360  4.2059057156741790 16.1840963090127481   T   T   T
 10.9107033185359708  3.7411612567523207  8.5269857741873576   T   T   T
  9.6270929922585218  2.9050251937708991 13.6663246886351217   T   T   T
 11.5914600426348375  5.0192494319370100 11.0491453097893899   F   F   F
 14.5774271740984904  6.7155304316426836 16.1840963090127481   T   T   T
 12.3596358238653252  6.2507859727208261  8.5269857741873576   T   T   T
 11.0760254975878762  5.4146499097394036 13.6663246886351217   T   T   T
 13.0403925479641920  7.5288741479055155 11.0491453097893899   F   F   F
 16.0263596794278449  9.2251551476111899 16.1840963090127481   T   T   T
 13.8085683291946797  8.7604106886893316  8.5269857741873576   T   T   T
 12.5249580029172307  7.9242746257079091 13.6663246886351217   T   T   T
