Ag 
 1.0000000000000000
    11.5100013414421465    0.0000000000000000    0.0000000000000000
     5.7550006707210732    9.9679535592818631    0.0000000000000000
     0.0000000000000000    0.0000000000000000   24.3978767417610491
 Ag 
  64
Selective dynamics
Cartesian
  0.0000000000000000  0.0000000000000000  0.0000000000000000   F   F   F
  1.4387501676802683  0.8306627966068219  2.3494691854402632   T   T   T
  0.0000000000000000  1.6613255932136437  4.6989383708805263   T   T   T
  0.0000000000000000  0.0000000000000000  7.0484075563207895   T   T   T
  1.4387501676802683  2.4919883898204658  0.0000000000000000   F   F   F
  2.8775003353605366  3.3226511864272874  2.3494691854402632   T   T   T
  1.4387501676802683  4.1533139830341099  4.6989383708805263   T   T   T
  1.4387501676802683  2.4919883898204658  7.0484075563207895   T   T   T
  2.8775003353605366  4.9839767796409316  0.0000000000000000   F   F   F
  4.3162505030408047  5.8146395762477532  2.3494691854402632   T   T   T
  2.8775003353605366  6.6453023728545748  4.6989383708805263   T   T   T
  2.8775003353605366  4.9839767796409316  7.0484075563207895   T   T   T
  4.3162505030408047  7.4759651694613973  0.0000000000000000   F   F   F
  5.7550006707210732  8.3066279660682198  2.3494691854402632   T   T   T
  4.3162505030408047  9.1372907626750415  4.6989383708805263   T   T   T
  4.3162505030408047  7.4759651694613973  7.0484075563207895   T   T   T
  2.8775003353605366  0.0000000000000000  0.0000000000000000   F   F   F
  4.3162505030408047  0.8306627966068219  2.3494691854402632   T   T   T
  2.8775003353605366  1.6613255932136437  4.6989383708805263   T   T   T
  2.8775003353605366  0.0000000000000000  7.0484075563207895   T   T   T
  4.3162505030408047  2.4919883898204658  0.0000000000000000   F   F   F
  5.7550006707210732  3.3226511864272874  2.3494691854402632   T   T   T
  4.3162505030408047  4.1533139830341099  4.6989383708805263   T   T   T
  4.3162505030408047  2.4919883898204658  7.0484075563207895   T   T   T
  5.7550006707210732  4.9839767796409316  0.0000000000000000   F   F   F
  7.1937508384013418  5.8146395762477532  2.3494691854402632   T   T   T
  5.7550006707210732  6.6453023728545748  4.6989383708805263   T   T   T
  5.7550006707210732  4.9839767796409316  7.0484075563207895   T   T   T
  7.1937508384013409  7.4759651694613973  0.0000000000000000   F   F   F
  8.6325010060816094  8.3066279660682198  2.3494691854402632   T   T   T
  7.1937508384013409  9.1372907626750415  4.6989383708805263   T   T   T
  7.1937508384013409  7.4759651694613973  7.0484075563207895   T   T   T
  5.7550006707210732  0.0000000000000000  0.0000000000000000   F   F   F
  7.1937508384013418  0.8306627966068219  2.3494691854402632   T   T   T
  5.7550006707210732  1.6613255932136437  4.6989383708805263   T   T   T
  5.7550006707210732  0.0000000000000000  7.0484075563207895   T   T   T
  7.1937508384013418  2.4919883898204658  0.0000000000000000   F   F   F
  8.6325010060816094  3.3226511864272874  2.3494691854402632   T   T   T
  7.1937508384013418  4.1533139830341099  4.6989383708805263   T   T   T
  7.1937508384013418  2.4919883898204658  7.0484075563207895   T   T   T
  8.6325010060816094  4.9839767796409316  0.0000000000000000   F   F   F
 10.0712511737618780  5.8146395762477532  2.3494691854402632   T   T   T
  8.6325010060816094  6.6453023728545748  4.6989383708805263   T   T   T
  8.6325010060816094  4.9839767796409316  7.0484075563207895   T   T   T
 10.0712511737618780  7.4759651694613973  0.0000000000000000   F   F   F
 11.5100013414421465  8.3066279660682198  2.3494691854402632   T   T   T
 10.0712511737618780  9.1372907626750415  4.6989383708805263   T   T   T
 10.0712511737618780  7.4759651694613973  7.0484075563207895   T   T   T
  8.6325010060816094  0.0000000000000000  0.0000000000000000   F   F   F
 10.0712511737618780  0.8306627966068219  2.3494691854402632   T   T   T
  8.6325010060816094  1.6613255932136437  4.6989383708805263   T   T   T
  8.6325010060816094  0.0000000000000000  7.0484075563207895   T   T   T
 10.0712511737618780  2.4919883898204658  0.0000000000000000   F   F   F
 11.5100013414421465  3.3226511864272874  2.3494691854402632   T   T   T
 10.0712511737618780  4.1533139830341099  4.6989383708805263   T   T   T
 10.0712511737618780  2.4919883898204658  7.0484075563207895   T   T   T
 11.5100013414421465  4.9839767796409316  0.0000000000000000   F   F   F
 12.9487515091224150  5.8146395762477532  2.3494691854402632   T   T   T
 11.5100013414421465  6.6453023728545748  4.6989383708805263   T   T   T
 11.5100013414421465  4.9839767796409316  7.0484075563207895   T   T   T
 12.9487515091224132  7.4759651694613973  0.0000000000000000   F   F   F
 14.3875016768026818  8.3066279660682198  2.3494691854402632   T   T   T
 12.9487515091224132  9.1372907626750415  4.6989383708805263   T   T   T
 12.9487515091224132  7.4759651694613973  7.0484075563207895   T   T   T
