Au  N 
 1.0000000000000000
    11.5914600426348375    0.0000000000000000    0.0000000000000000
     0.0000000000000000   11.5914600426348375    0.0000000000000000
     0.0000000000000000    0.0000000000000000   21.1473000000000013
 Au  N  
  64   2
Selective dynamics
Cartesian
  2.1615229031792551  2.1615229182330706  7.4674929851568059   F   F   F
  0.7204318317338471  0.7204318369535727  9.5421285988185964   T   T   T
  2.1774331789248627  2.1774331737051371 11.6025771257271177   T   T   T
  0.7292649908542223  0.7292649738413928 13.6798070148431954   T   T   T
  2.1615229031792551  5.0593879288917796  7.4674929851568059   F   F   F
  0.7204318317338471  3.6182968476122821  9.5421285988185964   T   T   T
  2.1774331789248627  5.0752981843638461 11.6025771257271177   T   T   T
  0.7292649908542223  3.6271299845001019 13.6798070148431954   T   T   T
  2.1615229031792551  7.9572529395504894  7.4674929851568059   F   F   F
  0.7204318317338471  6.5161618582709915  9.5421285988185964   T   T   T
  2.1774331789248627  7.9731631950225559 11.6025771257271177   T   T   T
  0.7292649908542223  6.5249949951588118 13.6798070148431954   T   T   T
  2.1615229031792551 10.8551179502091983  7.4674929851568059   F   F   F
  0.7204318317338471  9.4140268689297013  9.5421285988185964   T   T   T
  2.1774331789248627 10.8710282056812648 11.6025771257271177   T   T   T
  0.7292649908542223  9.4228600058175207 13.6798070148431954   T   T   T
  5.0593879138379645  2.1615229182330706  7.4674929851568059   F   F   F
  3.6182968423925561  0.7204318369535727  9.5421285988185964   T   T   T
  5.0752981895835720  2.1774331737051371 11.6025771257271177   T   T   T
  3.6271300015129317  0.7292649738413928 13.6798070148431954   T   T   T
  5.0593879138379645  5.0593879288917796  7.4674929851568059   F   F   F
  3.6182968423925561  3.6182968476122821  9.5421285988185964   T   T   T
  5.0752981895835720  5.0752981843638461 11.6025771257271177   T   T   T
  3.6271300015129317  3.6271299845001019 13.6798070148431954   T   T   T
  5.0593879138379645  7.9572529395504894  7.4674929851568059   F   F   F
  3.6182968423925561  6.5161618582709915  9.5421285988185964   T   T   T
  5.0752981895835720  7.9731631950225559 11.6025771257271177   T   T   T
  3.6271300015129317  6.5249949951588118 13.6798070148431954   T   T   T
  5.0593879138379645 10.8551179502091983  7.4674929851568059   F   F   F
  3.6182968423925561  9.4140268689297013  9.5421285988185964   T   T   T
  5.0752981895835720 10.8710282056812648 11.6025771257271177   T   T   T
  3.6271300015129317  9.4228600058175207 13.6798070148431954   T   T   T
  7.9572529244966743  2.1615229182330706  7.4674929851568059   F   F   F
  6.5161618530512664  0.7204318369535727  9.5421285988185964   T   T   T
  7.9731632002422819  2.1774331737051371 11.6025771257271177   T   T   T
  6.5249950121716411  0.7292649738413928 13.6798070148431954   T   T   T
  7.9572529244966743  5.0593879288917796  7.4674929851568059   F   F   F
  6.5161618530512664  3.6182968476122821  9.5421285988185964   T   T   T
  7.9731632002422819  5.0752981843638461 11.6025771257271177   T   T   T
  6.5249950121716411  3.6271299845001019 13.6798070148431954   T   T   T
  7.9572529244966743  7.9572529395504894  7.4674929851568059   F   F   F
  6.5161618530512664  6.5161618582709915  9.5421285988185964   T   T   T
  7.9731632002422819  7.9731631950225559 11.6025771257271177   T   T   T
  6.5249950121716411  6.5249949951588118 13.6798070148431954   T   T   T
  7.9572529244966743 10.8551179502091983  7.4674929851568059   F   F   F
  6.5161618530512664  9.4140268689297013  9.5421285988185964   T   T   T
  7.9731632002422819 10.8710282056812648 11.6025771257271177   T   T   T
  6.5249950121716411  9.4228600058175207 13.6798070148431954   T   T   T
 10.8551179351553824  2.1615229182330706  7.4674929851568059   F   F   F
  9.4140268637099744  0.7204318369535727  9.5421285988185964   T   T   T
 10.8710282109009899  2.1774331737051371 11.6025771257271177   T   T   T
  9.4228600228303510  0.7292649738413928 13.6798070148431954   T   T   T
 10.8551179351553824  5.0593879288917796  7.4674929851568059   F   F   F
  9.4140268637099744  3.6182968476122821  9.5421285988185964   T   T   T
 10.8710282109009899  5.0752981843638461 11.6025771257271177   T   T   T
  9.4228600228303510  3.6271299845001019 13.6798070148431954   T   T   T
 10.8551179351553824  7.9572529395504894  7.4674929851568059   F   F   F
  9.4140268637099744  6.5161618582709915  9.5421285988185964   T   T   T
 10.8710282109009899  7.9731631950225559 11.6025771257271177   T   T   T
  9.4228600228303510  6.5249949951588118 13.6798070148431954   T   T   T
 10.8551179351553824 10.8551179502091983  7.4674929851568059   F   F   F
  9.4140268637099744  9.4140268689297013  9.5421285988185964   T   T   T
 10.8710282109009899 10.8710282056812648 11.6025771257271177   T   T   T
  9.4228600228303510  9.4228600058175207 13.6798070148431954   T   T   T
  2.1781975000000000  2.1781974800000001 14.9798070100000000   T   T   T
  3.3081775000000002  2.1781974800000001 14.9798070100000000   T   T   T
